
Welcome to IBM(R) ILOG(R) CPLEX(R) Interactive Optimizer 22.1.1.0
  with Simplex, Mixed Integer & Barrier Optimizers
5725-A06 5725-A29 5724-Y48 5724-Y49 5724-Y54 5724-Y55 5655-Y21
Copyright IBM Corp. 1988, 2022.  All Rights Reserved.

Type 'help' for a list of available commands.
Type 'help' followed by a command name for more
information on commands.

CPLEX> Selected objective sense:  MINIMIZE
Selected objective  name:  00000000
Selected RHS        name:  RHS1
Selected bound      name:  BOUND
Problem 'ee.mps' read.
Read time = 0.02 sec. (3.14 ticks)
CPLEX> New value for time limit in seconds: 7200
CPLEX> New value for parallel optimization mode: -1
CPLEX> New value for default parallel thread count: 40
CPLEX> New value for mixed integer optimality gap tolerance: 1e-13
CPLEX> Version identifier: 22.1.1.0 | 2022-11-28 | 9160aff4d
CPXPARAM_Threads                                 40
CPXPARAM_Parallel                                -1
CPXPARAM_TimeLimit                               7200
CPXPARAM_MIP_Tolerances_MIPGap                   1e-13
Found incumbent of value 0.000000 after 0.00 sec. (0.31 ticks)
Tried aggregator 2 times.
MIP Presolve eliminated 179 rows and 2745 columns.
MIP Presolve modified 5862 coefficients.
Aggregator did 713 substitutions.
Reduced MIP has 3624 rows, 7739 columns, and 28645 nonzeros.
Reduced MIP has 7739 binaries, 0 generals, 0 SOSs, and 0 indicators.
Presolve time = 0.07 sec. (68.57 ticks)
Probing time = 0.03 sec. (5.90 ticks)
Tried aggregator 1 time.
Detecting symmetries...
Reduced MIP has 3624 rows, 7739 columns, and 28645 nonzeros.
Reduced MIP has 7739 binaries, 0 generals, 0 SOSs, and 0 indicators.
Presolve time = 0.03 sec. (21.84 ticks)
Probing time = 0.02 sec. (5.66 ticks)
Clique table members: 18552.
MIP emphasis: balance optimality and feasibility.
MIP search method: dynamic search.
Parallel mode: opportunistic, using up to 40 threads.
Root relaxation solution time = 0.09 sec. (73.09 ticks)

        Nodes                                         Cuts/
   Node  Left     Objective  IInf  Best Integer    Best Bound    ItCnt     Gap

*     0+    0                            0.0000  -1.31000e+13              --- 
*     0+    0                      -4.40000e+12  -1.31000e+13           197.73%
*     0+    0                      -5.50000e+12  -1.31000e+13           138.18%
      0     0  -1.30900e+13    92  -5.50000e+12  -1.30900e+13     1718  138.00%
*     0+    0                      -1.30900e+13  -1.30900e+13             0.00%
*     0+    0                      -1.30900e+13  -1.30900e+13             0.00%
      0     0  -1.30900e+13   140  -1.30900e+13      Cuts: 80     2472    0.00%
*     0+    0                      -1.30900e+13  -1.30900e+13             0.00%
      0     0  -1.30900e+13    79  -1.30900e+13      Cuts: 60     2962    0.00%
      0     0  -1.30900e+13    99  -1.30900e+13      Cuts: 33     3004    0.00%
*     0+    0                      -1.30900e+13  -1.30900e+13             0.00%

Repeating presolve.
Tried aggregator 3 times.
MIP Presolve eliminated 1008 rows and 2741 columns.
MIP Presolve added 42 rows and 0 columns.
MIP Presolve modified 124 coefficients.
Aggregator did 327 substitutions.
Reduced MIP has 2331 rows, 4646 columns, and 16784 nonzeros.
Reduced MIP has 4646 binaries, 0 generals, 0 SOSs, and 0 indicators.
Presolve time = 0.07 sec. (72.55 ticks)
Probing fixed 113 vars, tightened 0 bounds.
Probing time = 0.05 sec. (19.35 ticks)
Tried aggregator 2 times.
MIP Presolve eliminated 87 rows and 150 columns.
Aggregator did 24 substitutions.
Reduced MIP has 2220 rows, 4462 columns, and 16073 nonzeros.
Reduced MIP has 4462 binaries, 0 generals, 0 SOSs, and 0 indicators.
Presolve time = 0.02 sec. (25.98 ticks)
Probing time = 0.03 sec. (10.04 ticks)
Tried aggregator 1 time.
Detecting symmetries...
MIP Presolve eliminated 3 rows and 3 columns.
Reduced MIP has 2217 rows, 4459 columns, and 16064 nonzeros.
Reduced MIP has 4459 binaries, 0 generals, 0 SOSs, and 0 indicators.
Presolve time = 0.02 sec. (17.74 ticks)
Represolve time = 0.23 sec. (171.20 ticks)
Probing time = 0.02 sec. (4.41 ticks)
Clique table members: 10683.
MIP emphasis: balance optimality and feasibility.
MIP search method: dynamic search.
Parallel mode: opportunistic, using up to 40 threads.
Root relaxation solution time = 0.06 sec. (40.76 ticks)

        Nodes                                         Cuts/
   Node  Left     Objective  IInf  Best Integer    Best Bound    ItCnt     Gap

*     0+    0                      -1.30900e+13  -1.30900e+13             0.00%
      0     0  -1.30900e+13    55  -1.30900e+13  -1.30900e+13     4364    0.00%
      0     0  -1.30900e+13    40  -1.30900e+13      Cuts: 17     4389    0.00%
      0     0  -1.30900e+13    75  -1.30900e+13      Cuts: 28     4408    0.00%
      0     0  -1.30900e+13    45  -1.30900e+13      Cuts: 25     4414    0.00%
      0     0  -1.30900e+13    95  -1.30900e+13      Cuts: 20     4441    0.00%
      0     2  -1.30900e+13    56  -1.30900e+13  -1.30900e+13     4441    0.00%
Elapsed time = 2.27 sec. (1653.77 ticks, tree = 0.02 MB, solutions = 7)
   1340    18        cutoff        -1.30900e+13  -1.30900e+13    53845    0.00%
   2819    41  -1.30900e+13    68  -1.30900e+13  -1.30900e+13   108674    0.00%

GUB cover cuts applied:  4
Clique cuts applied:  13
Cover cuts applied:  361
Mixed integer rounding cuts applied:  11
Zero-half cuts applied:  26
Lift and project cuts applied:  9
Gomory fractional cuts applied:  9

Root node processing (before b&c):
  Real time             =    1.88 sec. (1653.03 ticks)
Parallel b&c, 40 threads:
  Real time             =    1.93 sec. (683.78 ticks)
  Sync time (average)   =    0.84 sec.
  Wait time (average)   =    0.00 sec.
                          ------------
Total (root+branch&cut) =    3.80 sec. (2336.80 ticks)

Solution pool: 10 solutions saved.

MIP - Integer optimal solution:  Objective = -1.3089999390e+13
Solution time =    3.87 sec.  Iterations = 140330  Nodes = 3316
Deterministic time = 2336.84 ticks  (603.50 ticks/sec)

CPLEX> Solution 'p11' written to file 'ee.sol'.
CPLEX> 